100
1000
199
199
196
196
195
195
195
194
194
194
193
192
192
192
192
191
191
191
190
190
189
188
186
185
185
183
183
183
180
180
180
180
180
179
179
179
179
178
178
177
175
175
174
172
172
172
171
171
171
170
170
169
169
168
167
166
166
166
166
165
165
165
165
165
165
164
164
164
163
162
162
162
161
161
161
161
160
159
159
159
159
158
158
157
157
157
157
156
156
155
155
155
154
154
153
151
151
151
150
150
